db/data/1533521361224631851210238160931259226157.z3.out
-------------------
2500.108207814
